int NumberPatients = 61
int NumberOfRooms = 16
int NumberSurgeons = 4
int NumberOfDays = 6
Duration = [39,60,201,244,32,30,28,40,75,38,166,217,119,98,103,39,50,119,47,53,32,72,140,47,272,58,66,101,78,66,210,29,72,98,105,34,107,130,66,32,105,119,98,32,66,103,32,47,88,68,31,47,66,32,60,47,217,74,47,85,32];
Priority = [0,0,0,0,0,0,0,0,0,0,0,0,0,0,0,0,0,0,0,0,0,0,0,0,0,0,0,0,0,0,0,0,0,0,0,0,0,0,0,0,0,0,0,0,0,0,0,0,0,0,0,0,0,0,0,0,0,0,0,0,0];
Waiting = [59,53,80,141,84,65,37,78,107,46,127,315,37,113,72,281,148,176,172,113,57,78,115,164,158,32,141,70,171,79,24,84,191,148,316,36,101,43,121,80,253,120,86,32,35,351,32,70,52,37,57,67,116,73,494,172,135,228,57,70,120];
Surgeon = [3,2,16,1,4,5,4,6,4,6,7,3,9,3,3,1,1,12,5,4,5,4,6,1,7,2,10,6,9,1,6,5,3,6,5,1,2,6,4,3,1,6,3,8,2,2,6,12,5,7,4,1,7,5,4,1,2,1,3,9,2];
BlockAvailability = [[[0,0],[0,0],[0,1],[0,0],[1,1],[0,1],[1,0],[1,0],[0,0],[1,0],[0,0],[1,0],[1,0],[0,0],[0,1],[0,0]],[[0,1],[0,0],[0,0],[0,0],[0,1],[1,0],[0,1],[0,1],[0,0],[1,0],[0,0],[0,0],[0,0],[0,0],[1,0],[1,0]],[[1,0],[0,0],[0,0],[0,0],[0,1],[0,0],[0,1],[0,0],[1,0],[1,0],[0,0],[0,0],[1,0],[0,1],[1,0],[0,0]],[[1,0],[0,0],[0,0],[1,0],[0,1],[1,0],[0,1],[0,0],[0,0],[0,0],[0,1],[0,0],[0,0],[0,0],[0,1],[0,1]],[[0,0],[1,0],[0,0],[1,1],[1,0],[0,0],[0,1],[0,1],[0,0],[0,1],[0,0],[1,0],[0,1],[0,0],[0,0],[1,1]],[[0,0],[0,0],[0,0],[0,0],[0,0],[1,0],[0,0],[0,1],[0,0],[0,0],[0,0],[0,1],[0,0],[0,0],[0,0],[0,0]]];
SurgeonAvailability = [[[1,1],[1,1],[1,1],[0,1],[1,1],[1,1]],[[1,1],[1,1],[1,1],[0,0],[1,1],[1,1]],[[1,0],[1,1],[1,1],[1,0],[0,0],[1,0]],[[1,1],[1,1],[1,1],[1,1],[0,1],[1,0]]];
